p edge 49 476
e 1 2
e 1 3
e 1 4
e 1 5
e 1 6
e 1 7
e 1 8
e 1 9
e 1 15
e 1 17
e 1 22
e 1 25
e 1 29
e 1 33
e 1 36
e 1 41
e 1 43
e 1 49
e 2 3
e 2 4
e 2 5
e 2 6
e 2 7
e 2 8
e 2 9
e 2 10
e 2 16
e 2 18
e 2 23
e 2 26
e 2 30
e 2 34
e 2 37
e 2 42
e 2 44
e 3 4
e 3 5
e 3 6
e 3 7
e 3 9
e 3 10
e 3 11
e 3 15
e 3 17
e 3 19
e 3 24
e 3 27
e 3 31
e 3 35
e 3 38
e 3 45
e 4 5
e 4 6
e 4 7
e 4 10
e 4 11
e 4 12
e 4 16
e 4 18
e 4 20
e 4 22
e 4 25
e 4 28
e 4 32
e 4 39
e 4 46
e 5 6
e 5 7
e 5 11
e 5 12
e 5 13
e 5 17
e 5 19
e 5 21
e 5 23
e 5 26
e 5 29
e 5 33
e 5 40
e 5 47
e 6 7
e 6 12
e 6 13
e 6 14
e 6 18
e 6 20
e 6 24
e 6 27
e 6 30
e 6 34
e 6 36
e 6 41
e 6 48
e 7 13
e 7 14
e 7 19
e 7 21
e 7 25
e 7 28
e 7 31
e 7 35
e 7 37
e 7 42
e 7 43
e 7 49
e 8 9
e 8 10
e 8 11
e 8 12
e 8 13
e 8 14
e 8 15
e 8 16
e 8 22
e 8 24
e 8 29
e 8 32
e 8 36
e 8 40
e 8 43
e 8 48
e 9 10
e 9 11
e 9 12
e 9 13
e 9 14
e 9 15
e 9 16
e 9 17
e 9 23
e 9 25
e 9 30
e 9 33
e 9 37
e 9 41
e 9 44
e 9 49
e 10 11
e 10 12
e 10 13
e 10 14
e 10 16
e 10 17
e 10 18
e 10 22
e 10 24
e 10 26
e 10 31
e 10 34
e 10 38
e 10 42
e 10 45
e 11 12
e 11 13
e 11 14
e 11 17
e 11 18
e 11 19
e 11 23
e 11 25
e 11 27
e 11 29
e 11 32
e 11 35
e 11 39
e 11 46
e 12 13
e 12 14
e 12 18
e 12 19
e 12 20
e 12 24
e 12 26
e 12 28
e 12 30
e 12 33
e 12 36
e 12 40
e 12 47
e 13 14
e 13 19
e 13 20
e 13 21
e 13 25
e 13 27
e 13 31
e 13 34
e 13 37
e 13 41
e 13 43
e 13 48
e 14 20
e 14 21
e 14 26
e 14 28
e 14 32
e 14 35
e 14 38
e 14 42
e 14 44
e 14 49
e 15 16
e 15 17
e 15 18
e 15 19
e 15 20
e 15 21
e 15 22
e 15 23
e 15 29
e 15 31
e 15 36
e 15 39
e 15 43
e 15 47
e 16 17
e 16 18
e 16 19
e 16 20
e 16 21
e 16 22
e 16 23
e 16 24
e 16 30
e 16 32
e 16 37
e 16 40
e 16 44
e 16 48
e 17 18
e 17 19
e 17 20
e 17 21
e 17 23
e 17 24
e 17 25
e 17 29
e 17 31
e 17 33
e 17 38
e 17 41
e 17 45
e 17 49
e 18 19
e 18 20
e 18 21
e 18 24
e 18 25
e 18 26
e 18 30
e 18 32
e 18 34
e 18 36
e 18 39
e 18 42
e 18 46
e 19 20
e 19 21
e 19 25
e 19 26
e 19 27
e 19 31
e 19 33
e 19 35
e 19 37
e 19 40
e 19 43
e 19 47
e 20 21
e 20 26
e 20 27
e 20 28
e 20 32
e 20 34
e 20 38
e 20 41
e 20 44
e 20 48
e 21 27
e 21 28
e 21 33
e 21 35
e 21 39
e 21 42
e 21 45
e 21 49
e 22 23
e 22 24
e 22 25
e 22 26
e 22 27
e 22 28
e 22 29
e 22 30
e 22 36
e 22 38
e 22 43
e 22 46
e 23 24
e 23 25
e 23 26
e 23 27
e 23 28
e 23 29
e 23 30
e 23 31
e 23 37
e 23 39
e 23 44
e 23 47
e 24 25
e 24 26
e 24 27
e 24 28
e 24 30
e 24 31
e 24 32
e 24 36
e 24 38
e 24 40
e 24 45
e 24 48
e 25 26
e 25 27
e 25 28
e 25 31
e 25 32
e 25 33
e 25 37
e 25 39
e 25 41
e 25 43
e 25 46
e 25 49
e 26 27
e 26 28
e 26 32
e 26 33
e 26 34
e 26 38
e 26 40
e 26 42
e 26 44
e 26 47
e 27 28
e 27 33
e 27 34
e 27 35
e 27 39
e 27 41
e 27 45
e 27 48
e 28 34
e 28 35
e 28 40
e 28 42
e 28 46
e 28 49
e 29 30
e 29 31
e 29 32
e 29 33
e 29 34
e 29 35
e 29 36
e 29 37
e 29 43
e 29 45
e 30 31
e 30 32
e 30 33
e 30 34
e 30 35
e 30 36
e 30 37
e 30 38
e 30 44
e 30 46
e 31 32
e 31 33
e 31 34
e 31 35
e 31 37
e 31 38
e 31 39
e 31 43
e 31 45
e 31 47
e 32 33
e 32 34
e 32 35
e 32 38
e 32 39
e 32 40
e 32 44
e 32 46
e 32 48
e 33 34
e 33 35
e 33 39
e 33 40
e 33 41
e 33 45
e 33 47
e 33 49
e 34 35
e 34 40
e 34 41
e 34 42
e 34 46
e 34 48
e 35 41
e 35 42
e 35 47
e 35 49
e 36 37
e 36 38
e 36 39
e 36 40
e 36 41
e 36 42
e 36 43
e 36 44
e 37 38
e 37 39
e 37 40
e 37 41
e 37 42
e 37 43
e 37 44
e 37 45
e 38 39
e 38 40
e 38 41
e 38 42
e 38 44
e 38 45
e 38 46
e 39 40
e 39 41
e 39 42
e 39 45
e 39 46
e 39 47
e 40 41
e 40 42
e 40 46
e 40 47
e 40 48
e 41 42
e 41 47
e 41 48
e 41 49
e 42 48
e 42 49
e 43 44
e 43 45
e 43 46
e 43 47
e 43 48
e 43 49
e 44 45
e 44 46
e 44 47
e 44 48
e 44 49
e 45 46
e 45 47
e 45 48
e 45 49
e 46 47
e 46 48
e 46 49
e 47 48
e 47 49
e 48 49
